Optimal - objective value 16.00000000
      0 C0000000       6241808.1                      -0
      1 C0000001        12732172                      -0
      2 C0000002              15                      -0
      3 C0000003              15                      -0
      4 C0000004              15                       1
      5 C0000005              15                      -0
      6 C0000006              16                      -0
      7 C0000007              16                      -0
      8 C0000008              16                      -0
      9 C0000009              16                      -0
     10 C0000010              15                      -0
     11 C0000011              15                      -0
      0 X0000000               1                       0
      1 X0000001               1                       0
      2 X0000002               0                       0
      3 X0000003               0                       0
      4 X0000004               1                       0
      5 X0000005               0                       0
      6 X0000006               1                       0
      7 X0000007               0                       0
      8 X0000008               1                       0
      9 X0000009               0                       0
     10 X0000010               0                      -1
     11 X0000011               1                       0
     12 X0000012               0                       0
     13 X0000013               1                       0
     14 X0000014               1                       0
     15 X0000015               1                       0
     16 X0000016               1                       0
     17 X0000017               1                       1
     18 X0000018     0.091658332                       0
     19 X0000019      0.90834167                       0
     20 X0000020               1                       0
     21 X0000021               1                       0
     22 X0000022               0                       0
     23 X0000023               1                       0
